SAT
-3 95 -84 68 29 -79 34 -23 -38 62 -83 -76 -36 -51 4 -32 -92 -16 52 -50 64 -7 40 -13 -82 96 -31 80 75 61 -59 -94 35 -39 -91 43 70 -85 63 -20 -73 -10 41 22 -42 28 60 -65 67 5 -56 -6 44 72 58 100 -99 12 -24 -45 -78 9 -74 71 -1 -21 -54 86 -93 81 -57 -69 -98 -2 90 11 27 -26 -19 -89 -8 -14 -55 -87 -47 46 -30 88 -53 -18 -49 37 -25 66 48 97 -17 33 15 -77 0
